(declare-fun var0 () String)
(assert (str.in.re var0 (re.++ (re.union (re.+ (str.to.re "7")) (re.* (str.to.re "8"))) (re.++ (re.union (re.union (str.to.re "3") (str.to.re "444")) (re.union (str.to.re "55") (str.to.re "666"))) (re.++ (re.union (re.union (str.to.re "~~~") (str.to.re "0")) (re.union (str.to.re "11") (str.to.re "222"))) (re.++ (re.* (re.* (str.to.re "}}"))) (re.++ (re.union (re.* (str.to.re "{")) (re.+ (str.to.re "|"))) (re.++ (re.+ (re.* (str.to.re "``"))) (re.++ (re.* (re.* (str.to.re "_"))) (re.++ (re.* (re.+ (str.to.re "^"))) (re.++ (re.* (re.union (str.to.re "\\\\") (str.to.re "]]]"))) (re.++ (re.union (re.union (str.to.re ">>") (str.to.re "??")) (re.union (str.to.re "@") (str.to.re "[[["))) (re.++ (re.* (re.* (str.to.re "="))) (re.++ (re.union (re.* (str.to.re ";")) (re.* (str.to.re "<<"))) (re.++ (re.+ (re.* (str.to.re "::"))) (re.++ (re.* (re.* (str.to.re "//"))) (re.++ (re.* (re.* (str.to.re "..."))) (re.++ (re.union (re.union (str.to.re "+") (str.to.re ",")) (re.* (str.to.re "---"))) (re.++ (re.union (re.* (str.to.re "((")) (re.union (str.to.re ")))") (str.to.re "*"))) (re.++ (re.* (re.* (str.to.re "'"))) (re.++ (re.+ (re.union (str.to.re "%") (str.to.re "&"))) (re.++ (re.union (re.+ (str.to.re "##")) (re.+ (str.to.re "$$"))) (re.++ (re.union (re.union (str.to.re "ZZZ") (str.to.re "!!")) (re.* (str.to.re """"""""))) (re.++ (re.* (re.* (str.to.re "YY"))) (re.++ (re.* (re.* (str.to.re "XXX"))) (re.++ (re.* (re.+ (str.to.re "W"))) (re.++ (re.+ (re.* (str.to.re "VVV"))) (re.++ (re.+ (re.union (str.to.re "TTT") (str.to.re "U"))) (re.++ (re.+ (re.union (str.to.re "RR") (str.to.re "SS"))) (re.++ (re.* (re.* (str.to.re "QQ"))) (re.++ (re.* (re.* (str.to.re "PP"))) (re.++ (re.+ (re.union (str.to.re "NN") (str.to.re "O"))) (re.++ (re.+ (re.union (str.to.re "L") (str.to.re "MMM"))) (re.++ (re.* (re.+ (str.to.re "KKK"))) (re.++ (re.* (re.+ (str.to.re "JJ"))) (re.++ (re.union (re.* (str.to.re "GG")) (re.union (str.to.re "HH") (str.to.re "I"))) (re.++ (re.+ (re.* (str.to.re "FFF"))) (re.++ (re.union (re.+ (str.to.re "DD")) (re.+ (str.to.re "EE"))) (re.++ (re.* (re.union (str.to.re "BB") (str.to.re "C"))) (re.++ (re.* (re.+ (str.to.re "A"))) (re.++ (re.union (re.* (str.to.re "xxx")) (re.union (str.to.re "yy") (str.to.re "zzz"))) (re.++ (re.+ (re.* (str.to.re "www"))) (re.++ (re.* (re.union (str.to.re "u") (str.to.re "vv"))) (re.++ (re.+ (re.union (str.to.re "ss") (str.to.re "ttt"))) (re.++ (re.union (re.* (str.to.re "qqq")) (re.* (str.to.re "rr"))) (re.++ (re.* (re.* (str.to.re "p"))) (re.++ (re.+ (re.* (str.to.re "ooo"))) (re.++ (re.union (re.+ (str.to.re "lll")) (re.union (str.to.re "m") (str.to.re "n"))) (re.++ (re.+ (re.union (str.to.re "jjj") (str.to.re "k"))) (re.++ (re.union (re.+ (str.to.re "hhh")) (re.+ (str.to.re "ii"))) (re.++ (re.* (re.union (str.to.re "fff") (str.to.re "gg"))) (re.++ (re.union (re.+ (str.to.re "dd")) (re.+ (str.to.re "e"))) (re.++ (re.* (re.+ (str.to.re "cc"))) (re.++ (re.union (re.union (str.to.re "888") (str.to.re "9")) (re.union (str.to.re "aaa") (str.to.re "bbb"))) (re.++ (re.* (re.+ (str.to.re "7"))) (re.++ (re.union (re.union (str.to.re "444") (str.to.re "5")) (re.* (str.to.re "6"))) (re.++ (re.* (re.union (str.to.re "22") (str.to.re "3"))) (re.++ (re.+ (re.+ (str.to.re "111"))) (re.+ (re.+ (str.to.re "0")))))))))))))))))))))))))))))))))))))))))))))))))))))))))))))
(check-sat)